(set-logic QF_SLAH)

(declare-datatypes ((data_t 0)) (((c_data_t (sz Int)))))

(declare-heap (Int data_t))

(define-fun hck ((?x Int) (?y Int) (?v Int)) Bool
	(and
		(>= (- ?y ?x) 2) (<= (- ?y ?x) ?v)
		(sep (pto ?x (c_data_t (- ?y ?x))) (blk (+ ?x 1) ?y))
))

(define-fun-rec hls ((?x Int) (?y Int) (?v Int)) Bool
	(or
		(and (= ?x ?y) (_ emp Int data_t))
		(exists ((?w Int)) (sep (hck ?x ?w ?v) (hls ?w ?y ?v)))
))

(declare-const x0 Int)
(declare-const x1 Int)
(declare-const v0 Int)
(declare-const x2 Int)
(declare-const x3 Int)
(declare-const x4 Int)
(declare-const x5 Int)
(declare-const x6 Int)
(declare-const x7 Int)
(declare-const x8 Int)
(declare-const x9 Int)
(declare-const x10 Int)
(declare-const x11 Int)
(declare-const x12 Int)
(declare-const x13 Int)
(declare-const x14 Int)
(declare-const x15 Int)
(declare-const v14 Int)
(declare-const x16 Int)
(declare-const x17 Int)
(declare-const x18 Int)
(declare-const x19 Int)
(declare-const x20 Int)
(declare-const x21 Int)
(declare-const x22 Int)
(declare-const x23 Int)
(declare-const x24 Int)
(declare-const x25 Int)
(declare-const v24 Int)
(declare-const x26 Int)
(declare-const x27 Int)
(declare-const x28 Int)
(declare-const x29 Int)
(declare-const v28 Int)
(declare-const x30 Int)
(declare-const x31 Int)
(declare-const v30 Int)
(declare-const x32 Int)
(declare-const x33 Int)
(declare-const v32 Int)
(declare-const x34 Int)
(declare-const x35 Int)
(declare-const x36 Int)
(declare-const x37 Int)
(declare-const x38 Int)
(declare-const x39 Int)
(declare-const x40 Int)
(declare-const x41 Int)
(declare-const x42 Int)
(declare-const x43 Int)
(declare-const v42 Int)
(declare-const x44 Int)
(declare-const x45 Int)
(declare-const v44 Int)
(declare-const x46 Int)
(declare-const x47 Int)
(declare-const x48 Int)
(declare-const x49 Int)
(declare-const v48 Int)
(declare-const x50 Int)
(declare-const x51 Int)
(declare-const x52 Int)
(declare-const x53 Int)
(declare-const v52 Int)
(declare-const x54 Int)
(declare-const x55 Int)
(declare-const x56 Int)
(declare-const x57 Int)
(declare-const x58 Int)
(declare-const x59 Int)
(declare-const x60 Int)
(declare-const x61 Int)
(declare-const x62 Int)
(declare-const x63 Int)
(declare-const x64 Int)
(declare-const x65 Int)
(declare-const x66 Int)
(declare-const x67 Int)
(declare-const v66 Int)
(declare-const x68 Int)
(declare-const x69 Int)
(declare-const v68 Int)
(declare-const x70 Int)
(declare-const x71 Int)
(declare-const v70 Int)
(declare-const x72 Int)
(declare-const x73 Int)
(declare-const x74 Int)
(declare-const x75 Int)
(declare-const v74 Int)
(declare-const x76 Int)
(declare-const x77 Int)
(declare-const v76 Int)
(declare-const x78 Int)
(declare-const x79 Int)
(declare-const x80 Int)
(declare-const x81 Int)
(declare-const v80 Int)
(declare-const x82 Int)
(declare-const x83 Int)
(declare-const x84 Int)
(declare-const x85 Int)
(declare-const x86 Int)
(declare-const x87 Int)
(declare-const x88 Int)
(declare-const x89 Int)
(declare-const x90 Int)
(declare-const x91 Int)
(declare-const v90 Int)
(declare-const x92 Int)
(declare-const x93 Int)
(declare-const x94 Int)
(declare-const x95 Int)
(declare-const v94 Int)
(declare-const x96 Int)
(declare-const x97 Int)
(declare-const x98 Int)
(declare-const x99 Int)
(declare-const x100 Int)
(declare-const x101 Int)
(declare-const x102 Int)
(declare-const x103 Int)
(declare-const v102 Int)
(declare-const x104 Int)
(declare-const x105 Int)
(declare-const v104 Int)
(declare-const x106 Int)
(declare-const x107 Int)
(declare-const x108 Int)
(declare-const x109 Int)
(declare-const v108 Int)
(declare-const x110 Int)
(declare-const x111 Int)
(declare-const v110 Int)
(declare-const x112 Int)
(declare-const x113 Int)
(declare-const x114 Int)
(declare-const x115 Int)
(declare-const x116 Int)
(declare-const x117 Int)
(declare-const v116 Int)
(declare-const x118 Int)
(declare-const x119 Int)
(declare-const v118 Int)

(assert(and
(distinct x72 x0) (distinct x12 x96) (< x10 x68) (< x99 x90) (distinct x118 x80) (= x2 x43) (= x92 x109) (= x58 x28) 
(sep
(hls x0 x1 v0)
(blk x2 x3)
(pto x4 (c_data_t x5))
(pto x6 (c_data_t x7))
(pto x8 (c_data_t x9))
(pto x10 (c_data_t x11))
(pto x12 (c_data_t x13))
(hls x14 x15 v14)
(blk x16 x17)
(pto x18 (c_data_t x19))
(blk x20 x21)
(blk x22 x23)
(hls x24 x25 v24)
(pto x26 (c_data_t x27))
(hls x28 x29 v28)
(hls x30 x31 v30)
(hls x32 x33 v32)
(blk x34 x35)
(blk x36 x37)
(blk x38 x39)
(pto x40 (c_data_t x41))
(hls x42 x43 v42)
(hls x44 x45 v44)
(pto x46 (c_data_t x47))
(hls x48 x49 v48)
(pto x50 (c_data_t x51))
(hls x52 x53 v52)
(pto x54 (c_data_t x55))
(blk x56 x57)
(blk x58 x59)
(blk x60 x61)
(pto x62 (c_data_t x63))
(blk x64 x65)
(hls x66 x67 v66)
(hls x68 x69 v68)
(hls x70 x71 v70)
(blk x72 x73)
(hls x74 x75 v74)
(hls x76 x77 v76)
(blk x78 x79)
(hls x80 x81 v80)
(blk x82 x83)
(blk x84 x85)
(blk x86 x87)
(pto x88 (c_data_t x89))
(hls x90 x91 v90)
(pto x92 (c_data_t x93))
(hls x94 x95 v94)
(blk x96 x97)
(pto x98 (c_data_t x99))
(pto x100 (c_data_t x101))
(hls x102 x103 v102)
(hls x104 x105 v104)
(pto x106 (c_data_t x107))
(hls x108 x109 v108)
(hls x110 x111 v110)
(blk x112 x113)
(pto x114 (c_data_t x115))
(hls x116 x117 v116)
(hls x118 x119 v118)
)))

(check-sat)